25 
300 
19.1 24.3 0 0
18.2 24 0 -23
12.6 24.9 -20 -123
14.4 28 20 -10
16.9 28.1 20 -21
20.7 28.2 -20 -136
12.5 26.6 20 -14
21.8 27.3 -20 -121
12.5 22.6 -20 -121
22.5 17 30 -28
19.9 15 30 -28
14.9 15.1 -30 -60
11.5 18.6 -30 -114
12.4 29.8 30 -19
17.8 28.1 30 -21
9.1 29.8 -40 -66
10 32.6 -40 -92
13.9 33.1 -40 -88
19.95 10.3 -40 -128
15.2 8 -40 -97
14.7 31.2 50 -14
7.4 36.5 -50 -91
21 25.5 50 -20
18 25.3 -10 -101
19.5 24.7 10 -18
21.4 21.8 10 -21
16 21.4 10 -21
18.65 26.2 10 -27
17.9 28.9 -10 -108
14.3 19.9 -20 -121
17 19 20 -27
10.8 21 -20 -76
15.7 23.7 10 -12
